50, 6801
498, 126
90, 204
664, 168
664, 168
135, 306
30, 68
120, 272
581, 147
83, 21
83, 21
135, 306
664, 168
166, 42
166, 42
581, 147
15, 34
581, 147
166, 42
135, 306
166, 42
415, 105
75, 170
15, 34
415, 105
415, 105
498, 126
105, 238
30, 68
83, 21
747, 189
166, 42
166, 42
581, 147
105, 238
747, 189
45, 102
664, 168
75, 170
150, 340
249, 63
249, 63
332, 84
332, 84
664, 168
45, 102
15, 34
105, 238
249, 63
30, 68
249, 63
